(set-info :smt-lib-version 2.6)
(set-info :category "crafted")
(set-logic QF_FFA)
(define-sort FF0 () (_ FiniteField 52435875175126190479447740508185965837690552500527637822603658699938581184513))
(declare-fun is_zero_n19_alt () FF0)
(declare-fun mul_n31_alt () FF0)
(declare-fun mul_n21_alt () FF0)
(declare-fun mul_n24_alt () FF0)
(declare-fun mul_n30_alt () FF0)
(declare-fun mul_n20_alt () FF0)
(declare-fun is_zero_n23_alt () FF0)
(declare-fun mul_n16_alt () FF0)
(declare-fun return_n0_alt () FF0)
(declare-fun is_zero_inv_n32_alt () FF0)
(declare-fun a_n2_alt () FF0)
(declare-fun mul_n29_alt () FF0)
(declare-fun is_zero_n28_alt () FF0)
(declare-fun mul_n3_alt () FF0)
(declare-fun mul_n15_alt () FF0)
(declare-fun mul_n14_alt () FF0)
(declare-fun b_n1_alt () FF0)
(declare-fun mul_n4_alt () FF0)
(declare-fun is_zero_n26_alt () FF0)
(declare-fun mul_n10_alt () FF0)
(declare-fun is_zero_n13_alt () FF0)
(declare-fun is_zero_inv_n27_alt () FF0)
(declare-fun mul_n5_alt () FF0)
(declare-fun is_zero_inv_n25_alt () FF0)
(declare-fun mul_n17_alt () FF0)
(declare-fun is_zero_inv_n22_alt () FF0)
(declare-fun is_zero_n7_alt () FF0)
(declare-fun is_zero_inv_n18_alt () FF0)
(declare-fun is_zero_n9_alt () FF0)
(declare-fun mul_n11_alt () FF0)
(declare-fun is_zero_inv_n12_alt () FF0)
(declare-fun is_zero_inv_n8_alt () FF0)
(declare-fun is_zero_inv_n6_alt () FF0)
(declare-fun is_zero_n19 () FF0)
(declare-fun mul_n31 () FF0)
(declare-fun mul_n21 () FF0)
(declare-fun mul_n24 () FF0)
(declare-fun mul_n30 () FF0)
(declare-fun mul_n20 () FF0)
(declare-fun is_zero_n23 () FF0)
(declare-fun mul_n16 () FF0)
(declare-fun return_n0 () FF0)
(declare-fun is_zero_inv_n32 () FF0)
(declare-fun a_n2 () FF0)
(declare-fun mul_n29 () FF0)
(declare-fun is_zero_n28 () FF0)
(declare-fun mul_n3 () FF0)
(declare-fun mul_n15 () FF0)
(declare-fun mul_n14 () FF0)
(declare-fun b_n1 () FF0)
(declare-fun mul_n4 () FF0)
(declare-fun is_zero_n26 () FF0)
(declare-fun mul_n10 () FF0)
(declare-fun is_zero_n13 () FF0)
(declare-fun is_zero_inv_n27 () FF0)
(declare-fun mul_n5 () FF0)
(declare-fun is_zero_inv_n25 () FF0)
(declare-fun mul_n17 () FF0)
(declare-fun is_zero_inv_n22 () FF0)
(declare-fun is_zero_n7 () FF0)
(declare-fun is_zero_inv_n18 () FF0)
(declare-fun is_zero_n9 () FF0)
(declare-fun mul_n11 () FF0)
(declare-fun is_zero_inv_n12 () FF0)
(declare-fun is_zero_inv_n8 () FF0)
(declare-fun is_zero_inv_n6 () FF0)
(assert 
  (let ((let0 (as ff0 FF0)))
  (let ((let1 (as ff2 FF0)))
  (let ((let2 (as ff52435875175126190479447740508185965837690552500527637822603658699938581184512 FF0)))
  (let ((let3 is_zero_n19_alt))
  (let ((let4 (ff.mul let3 let2)))
  (let ((let5 mul_n31_alt))
  (let ((let6 (ff.mul let5 let2)))
  (let ((let7 mul_n21_alt))
  (let ((let8 (ff.mul let7 let2)))
  (let ((let9 mul_n24_alt))
  (let ((let10 mul_n30_alt))
  (let ((let11 (ff.mul let10 let2)))
  (let ((let12 mul_n20_alt))
  (let ((let13 is_zero_n23_alt))
  (let ((let14 (ff.mul let13 let1)))
  (let ((let15 mul_n16_alt))
  (let ((let16 (ff.mul let15 let1)))
  (let ((let17 (ff.add let16 let14 let12 let11 let9 let8 let6 let4 let1)))
  (let ((let18 (as ff1 FF0)))
  (let ((let19 return_n0_alt))
  (let ((let20 (ff.mul let19 let2)))
  (let ((let21 (ff.add let20 let18)))
  (let ((let22 (ff.mul let21 let17)))
  (let ((let23 (= let22 let0)))
  (let ((let24 is_zero_inv_n32_alt))
  (let ((let25 (ff.mul let24 let17)))
  (let ((let26 (= let25 let19)))
  (let ((let27 (ff.add let4 let18)))
  (let ((let28 a_n2_alt))
  (let ((let29 (ff.mul let28 let27)))
  (let ((let30 (= let29 let5)))
  (let ((let31 mul_n29_alt))
  (let ((let32 (ff.mul let31 let13)))
  (let ((let33 (= let32 let10)))
  (let ((let34 is_zero_n28_alt))
  (let ((let35 (ff.mul let34 let2)))
  (let ((let36 (ff.add let35 let18)))
  (let ((let37 (ff.mul let36 let13)))
  (let ((let38 (= let37 let31)))
  (let ((let39 (as ff3 FF0)))
  (let ((let40 mul_n3_alt))
  (let ((let41 mul_n15_alt))
  (let ((let42 (ff.mul let41 let2)))
  (let ((let43 mul_n14_alt))
  (let ((let44 b_n1_alt))
  (let ((let45 (ff.mul let44 let2)))
  (let ((let46 mul_n4_alt))
  (let ((let47 is_zero_n26_alt))
  (let ((let48 (ff.mul let47 let2)))
  (let ((let49 mul_n10_alt))
  (let ((let50 (ff.mul let49 let2)))
  (let ((let51 is_zero_n13_alt))
  (let ((let52 (ff.add let4 let51 let50 let48 let46 let45 let43 let28 let42 let40 let39)))
  (let ((let53 (ff.mul let34 let52)))
  (let ((let54 (= let53 let0)))
  (let ((let55 is_zero_inv_n27_alt))
  (let ((let56 (ff.mul let55 let52)))
  (let ((let57 (= let56 let36)))
  (let ((let58 (as ff4 FF0)))
  (let ((let59 (ff.mul let40 let2)))
  (let ((let60 mul_n5_alt))
  (let ((let61 (ff.mul let60 let2)))
  (let ((let62 (ff.mul let28 let2)))
  (let ((let63 (ff.add let51 let50 let62 let61 let59 let58)))
  (let ((let64 (ff.mul let47 let63)))
  (let ((let65 (= let64 let0)))
  (let ((let66 (ff.add let48 let18)))
  (let ((let67 is_zero_inv_n25_alt))
  (let ((let68 (ff.mul let67 let63)))
  (let ((let69 (= let68 let66)))
  (let ((let70 (ff.mul let13 let2)))
  (let ((let71 (ff.add let70 let18)))
  (let ((let72 (as ff52435875175126190479447740508185965837690552500527637822603658699938581184511 FF0)))
  (let ((let73 (ff.mul let15 let72)))
  (let ((let74 (ff.add let73 let1)))
  (let ((let75 (ff.mul let74 let71)))
  (let ((let76 (= let75 let9)))
  (let ((let77 (ff.mul let43 let2)))
  (let ((let78 mul_n17_alt))
  (let ((let79 (ff.mul let78 let2)))
  (let ((let80 (ff.mul let12 let2)))
  (let ((let81 (ff.mul let51 let2)))
  (let ((let82 (ff.mul let49 let1)))
  (let ((let83 (ff.mul let15 let2)))
  (let ((let84 (ff.add let83 let82 let81 let80 let79 let77 let7 let41 let3 let39)))
  (let ((let85 (ff.mul let13 let84)))
  (let ((let86 (= let85 let0)))
  (let ((let87 is_zero_inv_n22_alt))
  (let ((let88 (ff.mul let87 let84)))
  (let ((let89 (= let88 let71)))
  (let ((let90 (ff.add let79 let18)))
  (let ((let91 (ff.mul let3 let72)))
  (let ((let92 (ff.mul let78 let1)))
  (let ((let93 (ff.mul let12 let1)))
  (let ((let94 (ff.add let93 let92 let91)))
  (let ((let95 (ff.mul let94 let90)))
  (let ((let96 (= let95 let7)))
  (let ((let97 (ff.mul let3 let1)))
  (let ((let98 (ff.mul let97 let90)))
  (let ((let99 (= let98 let12)))
  (let ((let100 (ff.mul let46 let2)))
  (let ((let101 is_zero_n7_alt))
  (let ((let102 (ff.mul let101 let2)))
  (let ((let103 (ff.add let62 let102 let100 let45 let77 let59 let58)))
  (let ((let104 (ff.mul let3 let103)))
  (let ((let105 (= let104 let0)))
  (let ((let106 is_zero_inv_n18_alt))
  (let ((let107 (ff.mul let106 let103)))
  (let ((let108 (= let107 let27)))
  (let ((let109 (ff.add let51 let28 let46 let43 let40 let2)))
  (let ((let110 (ff.mul let109 let15)))
  (let ((let111 (= let110 let78)))
  (let ((let112 is_zero_n9_alt))
  (let ((let113 (ff.mul let112 let2)))
  (let ((let114 (ff.add let113 let18)))
  (let ((let115 (ff.mul let28 let114)))
  (let ((let116 (= let115 let15)))
  (let ((let117 (ff.add let50 let18)))
  (let ((let118 (ff.mul let40 let1)))
  (let ((let119 (ff.mul let43 let1)))
  (let ((let120 (ff.mul let46 let1)))
  (let ((let121 (ff.mul let28 let1)))
  (let ((let122 (ff.mul let51 let1)))
  (let ((let123 (ff.add let122 let121 let120 let119 let118 let72)))
  (let ((let124 (ff.mul let123 let117)))
  (let ((let125 (= let124 let41)))
  (let ((let126 (ff.add let100 let62 let59 let18)))
  (let ((let127 (ff.mul let51 let72)))
  (let ((let128 (ff.add let127 let1)))
  (let ((let129 (ff.mul let128 let126)))
  (let ((let130 (= let129 let43)))
  (let ((let131 mul_n11_alt))
  (let ((let132 (ff.mul let131 let72)))
  (let ((let133 (ff.add let60 let82 let112 let132 let1)))
  (let ((let134 (ff.mul let51 let133)))
  (let ((let135 (= let134 let0)))
  (let ((let136 (ff.add let81 let18)))
  (let ((let137 is_zero_inv_n12_alt))
  (let ((let138 (ff.mul let137 let133)))
  (let ((let139 (= let138 let136)))
  (let ((let140 (ff.mul let60 let114)))
  (let ((let141 (= let140 let131)))
  (let ((let142 (ff.mul let126 let112)))
  (let ((let143 (= let142 let49)))
  (let ((let144 (ff.mul let101 let72)))
  (let ((let145 (ff.add let121 let144 let120 let118 let39)))
  (let ((let146 (ff.mul let112 let145)))
  (let ((let147 (= let146 let0)))
  (let ((let148 is_zero_inv_n8_alt))
  (let ((let149 (ff.mul let148 let145)))
  (let ((let150 (= let149 let114)))
  (let ((let151 (ff.add let60 let46 let45 let40 let39)))
  (let ((let152 (ff.mul let101 let151)))
  (let ((let153 (= let152 let0)))
  (let ((let154 (ff.add let102 let18)))
  (let ((let155 is_zero_inv_n6_alt))
  (let ((let156 (ff.mul let155 let151)))
  (let ((let157 (= let156 let154)))
  (let ((let158 (ff.add let46 let28 let40)))
  (let ((let159 (ff.add let62 let59 let18)))
  (let ((let160 (ff.mul let159 let158)))
  (let ((let161 (= let160 let60)))
  (let ((let162 (ff.add let44 let62 let59)))
  (let ((let163 (ff.add let28 let40)))
  (let ((let164 (ff.mul let163 let162)))
  (let ((let165 (= let164 let46)))
  (let ((let166 (ff.add let44 let62)))
  (let ((let167 (ff.mul let28 let166)))
  (let ((let168 (= let167 let40)))
  (let ((let169 (and let168 let165 let161 let157 let153 let150 let147 let143 let141 let139 let135 let130 let125 let116 let111 let108 let105 let99 let96 let89 let86 let76 let69 let65 let57 let54 let38 let33 let30 let26 let23)))
  (let ((let170 is_zero_n19))
  (let ((let171 (ff.mul let170 let2)))
  (let ((let172 mul_n31))
  (let ((let173 (ff.mul let172 let2)))
  (let ((let174 mul_n21))
  (let ((let175 (ff.mul let174 let2)))
  (let ((let176 mul_n24))
  (let ((let177 mul_n30))
  (let ((let178 (ff.mul let177 let2)))
  (let ((let179 mul_n20))
  (let ((let180 is_zero_n23))
  (let ((let181 (ff.mul let180 let1)))
  (let ((let182 mul_n16))
  (let ((let183 (ff.mul let182 let1)))
  (let ((let184 (ff.add let183 let181 let179 let178 let176 let175 let173 let171 let1)))
  (let ((let185 return_n0))
  (let ((let186 (ff.mul let185 let2)))
  (let ((let187 (ff.add let186 let18)))
  (let ((let188 (ff.mul let187 let184)))
  (let ((let189 (= let188 let0)))
  (let ((let190 is_zero_inv_n32))
  (let ((let191 (ff.mul let190 let184)))
  (let ((let192 (= let191 let185)))
  (let ((let193 (ff.add let171 let18)))
  (let ((let194 a_n2))
  (let ((let195 (ff.mul let194 let193)))
  (let ((let196 (= let195 let172)))
  (let ((let197 mul_n29))
  (let ((let198 (ff.mul let197 let180)))
  (let ((let199 (= let198 let177)))
  (let ((let200 is_zero_n28))
  (let ((let201 (ff.mul let200 let2)))
  (let ((let202 (ff.add let201 let18)))
  (let ((let203 (ff.mul let202 let180)))
  (let ((let204 (= let203 let197)))
  (let ((let205 mul_n3))
  (let ((let206 mul_n15))
  (let ((let207 (ff.mul let206 let2)))
  (let ((let208 mul_n14))
  (let ((let209 b_n1))
  (let ((let210 (ff.mul let209 let2)))
  (let ((let211 mul_n4))
  (let ((let212 is_zero_n26))
  (let ((let213 (ff.mul let212 let2)))
  (let ((let214 mul_n10))
  (let ((let215 (ff.mul let214 let2)))
  (let ((let216 is_zero_n13))
  (let ((let217 (ff.add let171 let216 let215 let213 let211 let210 let208 let194 let207 let205 let39)))
  (let ((let218 (ff.mul let200 let217)))
  (let ((let219 (= let218 let0)))
  (let ((let220 is_zero_inv_n27))
  (let ((let221 (ff.mul let220 let217)))
  (let ((let222 (= let221 let202)))
  (let ((let223 (ff.mul let205 let2)))
  (let ((let224 mul_n5))
  (let ((let225 (ff.mul let224 let2)))
  (let ((let226 (ff.mul let194 let2)))
  (let ((let227 (ff.add let216 let215 let226 let225 let223 let58)))
  (let ((let228 (ff.mul let212 let227)))
  (let ((let229 (= let228 let0)))
  (let ((let230 (ff.add let213 let18)))
  (let ((let231 is_zero_inv_n25))
  (let ((let232 (ff.mul let231 let227)))
  (let ((let233 (= let232 let230)))
  (let ((let234 (ff.mul let180 let2)))
  (let ((let235 (ff.add let234 let18)))
  (let ((let236 (ff.mul let182 let72)))
  (let ((let237 (ff.add let236 let1)))
  (let ((let238 (ff.mul let237 let235)))
  (let ((let239 (= let238 let176)))
  (let ((let240 (ff.mul let208 let2)))
  (let ((let241 mul_n17))
  (let ((let242 (ff.mul let241 let2)))
  (let ((let243 (ff.mul let179 let2)))
  (let ((let244 (ff.mul let216 let2)))
  (let ((let245 (ff.mul let214 let1)))
  (let ((let246 (ff.mul let182 let2)))
  (let ((let247 (ff.add let246 let245 let244 let243 let242 let240 let174 let206 let170 let39)))
  (let ((let248 (ff.mul let180 let247)))
  (let ((let249 (= let248 let0)))
  (let ((let250 is_zero_inv_n22))
  (let ((let251 (ff.mul let250 let247)))
  (let ((let252 (= let251 let235)))
  (let ((let253 (ff.add let242 let18)))
  (let ((let254 (ff.mul let170 let72)))
  (let ((let255 (ff.mul let241 let1)))
  (let ((let256 (ff.mul let179 let1)))
  (let ((let257 (ff.add let256 let255 let254)))
  (let ((let258 (ff.mul let257 let253)))
  (let ((let259 (= let258 let174)))
  (let ((let260 (ff.mul let170 let1)))
  (let ((let261 (ff.mul let260 let253)))
  (let ((let262 (= let261 let179)))
  (let ((let263 (ff.mul let211 let2)))
  (let ((let264 is_zero_n7))
  (let ((let265 (ff.mul let264 let2)))
  (let ((let266 (ff.add let226 let265 let263 let210 let240 let223 let58)))
  (let ((let267 (ff.mul let170 let266)))
  (let ((let268 (= let267 let0)))
  (let ((let269 is_zero_inv_n18))
  (let ((let270 (ff.mul let269 let266)))
  (let ((let271 (= let270 let193)))
  (let ((let272 (ff.add let216 let194 let211 let208 let205 let2)))
  (let ((let273 (ff.mul let272 let182)))
  (let ((let274 (= let273 let241)))
  (let ((let275 is_zero_n9))
  (let ((let276 (ff.mul let275 let2)))
  (let ((let277 (ff.add let276 let18)))
  (let ((let278 (ff.mul let194 let277)))
  (let ((let279 (= let278 let182)))
  (let ((let280 (ff.add let215 let18)))
  (let ((let281 (ff.mul let205 let1)))
  (let ((let282 (ff.mul let208 let1)))
  (let ((let283 (ff.mul let211 let1)))
  (let ((let284 (ff.mul let194 let1)))
  (let ((let285 (ff.mul let216 let1)))
  (let ((let286 (ff.add let285 let284 let283 let282 let281 let72)))
  (let ((let287 (ff.mul let286 let280)))
  (let ((let288 (= let287 let206)))
  (let ((let289 (ff.add let263 let226 let223 let18)))
  (let ((let290 (ff.mul let216 let72)))
  (let ((let291 (ff.add let290 let1)))
  (let ((let292 (ff.mul let291 let289)))
  (let ((let293 (= let292 let208)))
  (let ((let294 mul_n11))
  (let ((let295 (ff.mul let294 let72)))
  (let ((let296 (ff.add let224 let245 let275 let295 let1)))
  (let ((let297 (ff.mul let216 let296)))
  (let ((let298 (= let297 let0)))
  (let ((let299 (ff.add let244 let18)))
  (let ((let300 is_zero_inv_n12))
  (let ((let301 (ff.mul let300 let296)))
  (let ((let302 (= let301 let299)))
  (let ((let303 (ff.mul let224 let277)))
  (let ((let304 (= let303 let294)))
  (let ((let305 (ff.mul let289 let275)))
  (let ((let306 (= let305 let214)))
  (let ((let307 (ff.mul let264 let72)))
  (let ((let308 (ff.add let284 let307 let283 let281 let39)))
  (let ((let309 (ff.mul let275 let308)))
  (let ((let310 (= let309 let0)))
  (let ((let311 is_zero_inv_n8))
  (let ((let312 (ff.mul let311 let308)))
  (let ((let313 (= let312 let277)))
  (let ((let314 (ff.add let224 let211 let210 let205 let39)))
  (let ((let315 (ff.mul let264 let314)))
  (let ((let316 (= let315 let0)))
  (let ((let317 (ff.add let265 let18)))
  (let ((let318 is_zero_inv_n6))
  (let ((let319 (ff.mul let318 let314)))
  (let ((let320 (= let319 let317)))
  (let ((let321 (ff.add let211 let194 let205)))
  (let ((let322 (ff.add let226 let223 let18)))
  (let ((let323 (ff.mul let322 let321)))
  (let ((let324 (= let323 let224)))
  (let ((let325 (ff.add let209 let226 let223)))
  (let ((let326 (ff.add let194 let205)))
  (let ((let327 (ff.mul let326 let325)))
  (let ((let328 (= let327 let211)))
  (let ((let329 (ff.add let209 let226)))
  (let ((let330 (ff.mul let194 let329)))
  (let ((let331 (= let330 let205)))
  (let ((let332 (and let331 let328 let324 let320 let316 let313 let310 let306 let304 let302 let298 let293 let288 let279 let274 let271 let268 let262 let259 let252 let249 let239 let233 let229 let222 let219 let204 let199 let196 let192 let189)))
  (let ((let333 (= let185 let19)))
  (let ((let334 (not let333)))
  (let ((let335 (= let194 let28)))
  (let ((let336 (= let209 let44)))
  (let ((let337 (and let336 let335)))
  (let ((let338 (and let337 let334 let332 let169)))
  let338
)))))))))))))))))))))))))))))))))))))))))))))))))))))))))))))))))))))))))))))))))))))))))))))))))))))))))))))))))))))))))))))))))))))))))))))))))))))))))))))))))))))))))))))))))))))))))))))))))))))))))))))))))))))))))))))))))))))))))))))))))))))))))))))))))))))))))))))))))))))))))))))))))))))))))))))))))))))))))))))))))))))))))))))))))))
)
(check-sat)
